
Gurobi 13.0.0 (mac64[arm]) logging started Sun Dec  7 08:30:34 2025

Set parameter LogFile to value "/Users/jjung404/PyProjects/qiga/data/steiner-opt/SP/oddcycle3_log.txt"
Set parameter OutputFlag to value 1
Gurobi Optimizer version 13.0.0 build v13.0.0rc1 (mac64[arm] - Darwin 24.6.0 24G325)

CPU model: Apple M3
Thread count: 8 physical cores, 8 logical processors, using up to 8 threads

Optimize a model with 27 rows, 27 columns and 78 nonzeros (Min)
Model fingerprint: 0xfeb179ee
Model has 9 linear objective coefficients
Variable types: 18 continuous, 9 integer (9 binary)
Coefficient statistics:
  Matrix range     [1e+00, 2e+00]
  Objective range  [1e+00, 1e+00]
  Bounds range     [1e+00, 1e+00]
  RHS range        [1e+00, 2e+00]
Presolve removed 4 rows and 3 columns
Presolve time: 0.00s
Presolved: 23 rows, 24 columns, 70 nonzeros
Variable types: 15 continuous, 9 integer (9 binary)
Found heuristic solution: objective 9.0000000
Found heuristic solution: objective 8.0000000
Found heuristic solution: objective 7.0000000
Found heuristic solution: objective 6.0000000

Root relaxation: objective 3.000000e+00, 5 iterations, 0.00 seconds (0.00 work units)

    Nodes    |    Current Node    |     Objective Bounds      |     Work
 Expl Unexpl |  Obj  Depth IntInf | Incumbent    BestBd   Gap | It/Node Time

     0     0    3.00000    0    2    6.00000    3.00000  50.0%     -    0s
H    0     0                       4.0000000    3.00000  25.0%     -    0s

Cutting planes:
  MIR: 4
  Flow cover: 2
  Network: 2

Explored 1 nodes (5 simplex iterations) in 0.00 seconds (0.00 work units)
Thread count was 8 (of 8 available processors)

Solution count 5: 4 6 7 ... 9

Optimal solution found (tolerance 1.00e-04)
Best objective 4.000000000000e+00, best bound 4.000000000000e+00, gap 0.0000%
